50
12125

871 558
84 474
212 203
811 554
519 138
135 622
197 433
855 802
46 673
830 53
129 55
451 963
147 834
143 24
15 385
758 883
270 207
670 368
645 19
83 886
291 102
271 994
186 435
819 126
273 356
275 71
582 361
787 635
988 267
702 836
429 545
709 252
403 752
423 546
439 954
373 333
766 778
604 36
192 145
256 299
877 269
843 219
109 286
1 251
306 581
99 631
716 5
744 545
455 109
442 400
